SAT
1 -36 95 -80 -86 -55 19 -61 15 -40 71 -69 -62 -34 45 -100 32 91 -4 79 -53 76 78 35 -17 16 -2 50 74 -48 -46 39 -84 58 -3 29 68 83 -11 -33 24 -18 96 21 6 -54 -89 -30 60 75 -43 37 -70 -7 -25 23 8 42 -59 13 -72 28 94 -64 -26 -92 87 -66 -9 52 20 56 90 22 -51 -10 99 -49 -88 85 -38 -5 -81 31 47 -14 -57 -65 63 -41 -98 12 97 73 -82 -77 67 -93 27 44 0
